qbf_easy_train/easy_2128_SAT.qdimacs
p cnf 23 60
a 4 21 14 0
e 1 2 3 5 6 7 8 9 10 11 12 13 15 16 17 18 19 20 22 23 0
3 -1 0
3 -2 0
1 2 -3 0
4 -2 -5 0
-4 2 -5 0
4 2 5 0
-4 -2 5 0
8 -6 0
8 7 0
6 -7 -8 0
2 -7 -9 0
-2 7 -9 0
2 7 9 0
-2 -7 9 0
-11 -9 0
-11 -10 0
9 10 11 0
-8 -11 -12 0
8 11 -12 0
-8 11 12 0
8 -11 12 0
-5 12 -13 0
5 -12 -13 0
-5 -12 13 0
5 12 13 0
-15 -10 0
-15 -14 0
10 14 15 0
-15 -2 -16 0
15 2 -16 0
-15 2 16 0
15 -2 16 0
-13 16 -17 0
13 -16 -17 0
-13 -16 17 0
13 16 17 0
18 -3 0
18 -17 0
3 17 -18 0
-20 4 0
-20 10 0
-4 -10 20 0
19 -20 -21 0
-19 20 -21 0
19 20 21 0
-19 -20 21 0
-2 21 -22 0
2 -21 -22 0
-2 -21 22 0
2 21 22 0
18 -22 -23 0
-18 22 -23 0
18 22 23 0
-18 -22 23 0
-1 -3 9 0
6 -4 18 0
18 13 -11 20 22 0
-9 -8 -5 14 -11 -7 0
3 18 21 -19 -10 0
23 0
