sat_easy_train/easy_2128_SAT.dimacs
p cnf 119 394
-3 -1 0
-3 2 0
1 -2 3 0
-1 -4 0
1 -4 0
-3 4 -5 0
3 -4 -5 0
-3 -4 5 0
3 4 5 0
-6 -7 -8 0
6 7 -8 0
-6 7 8 0
6 -7 8 0
10 8 0
10 -9 0
-8 9 -10 0
-11 -10 0
-11 7 0
10 -7 11 0
-13 11 0
-13 -12 0
-11 12 13 0
-17 -15 0
-17 16 0
15 -16 17 0
-17 18 -19 0
17 -18 -19 0
-17 -18 19 0
17 18 19 0
-20 14 0
-20 19 0
-14 -19 20 0
20 -14 -21 0
-20 14 -21 0
20 14 21 0
-20 -14 21 0
-13 -21 -22 0
13 21 -22 0
-13 21 22 0
13 -21 22 0
-23 -24 -25 0
23 24 -25 0
-23 24 25 0
23 -24 25 0
25 6 -26 0
-25 -6 -26 0
25 -6 26 0
-25 6 26 0
27 -16 0
27 26 0
16 -26 -27 0
28 -12 0
28 -18 0
12 18 -28 0
3 2 -29 0
-3 -2 -29 0
3 -2 29 0
-3 2 29 0
-28 -29 -30 0
28 29 -30 0
-28 29 30 0
28 -29 30 0
-31 -27 0
-31 -30 0
27 30 31 0
32 22 0
32 -31 0
-22 31 -32 0
35 -33 0
35 -34 0
33 34 -35 0
-36 35 0
-36 -11 0
-35 11 36 0
32 36 -37 0
-32 -36 -37 0
32 -36 37 0
-32 36 37 0
9 -1 -38 0
-9 1 -38 0
9 1 38 0
-9 -1 38 0
-39 -16 0
-39 34 0
16 -34 39 0
-40 38 0
-40 39 0
-38 -39 40 0
-41 37 0
-41 -40 0
-37 40 41 0
42 8 0
42 -25 0
-8 25 -42 0
43 15 -44 0
-43 -15 -44 0
43 -15 44 0
-43 15 44 0
-45 44 0
-45 -8 0
-44 8 45 0
26 -45 -46 0
-26 45 -46 0
26 45 46 0
-26 -45 46 0
-47 -16 0
-47 -11 0
16 11 47 0
-46 -47 -48 0
46 47 -48 0
-46 47 48 0
46 -47 48 0
-49 -42 0
-49 -48 0
42 48 49 0
-50 -10 0
-50 20 0
10 -20 50 0
-4 33 -51 0
4 -33 -51 0
-4 -33 51 0
4 33 51 0
-52 21 0
-52 -51 0
-21 51 52 0
-2 -18 -53 0
2 18 -53 0
-2 18 53 0
2 -18 53 0
-33 53 -54 0
33 -53 -54 0
-33 -53 54 0
33 53 54 0
-55 -54 0
-55 -1 0
54 1 55 0
56 -52 0
56 -55 0
52 55 -56 0
-57 50 0
-57 -56 0
-50 56 57 0
-58 -49 0
-58 -57 0
49 57 58 0
-34 -3 -59 0
34 3 -59 0
-34 3 59 0
34 -3 59 0
-60 -58 0
-60 -59 0
58 59 60 0
-61 -44 0
-61 23 0
44 -23 61 0
-62 60 0
-62 61 0
-60 -61 62 0
-63 -24 0
-63 -15 0
24 15 63 0
64 -24 0
64 -43 0
24 43 -64 0
65 63 0
65 -64 0
-63 64 -65 0
66 -2 0
66 -19 0
2 19 -66 0
-65 66 -67 0
65 -66 -67 0
-65 -66 67 0
65 66 67 0
-68 -62 0
-68 -67 0
62 67 68 0
69 -8 0
69 6 0
8 -6 -69 0
-70 68 0
-70 69 0
-68 -69 70 0
-71 17 0
-71 -26 0
-17 26 71 0
-72 18 0
-72 17 0
-18 -17 72 0
-73 72 0
-73 -2 0
-72 2 73 0
-4 73 -74 0
4 -73 -74 0
-4 -73 74 0
4 73 74 0
75 71 0
75 -74 0
-71 74 -75 0
76 -7 0
76 20 0
7 -20 -76 0
77 76 0
77 -14 0
-76 14 -77 0
78 -14 0
78 54 0
14 -54 -78 0
79 77 0
79 -78 0
-77 78 -79 0
80 -75 0
80 -79 0
75 79 -80 0
70 -80 -81 0
-70 80 -81 0
70 80 81 0
-70 -80 81 0
-82 35 0
-82 -15 0
-35 15 82 0
81 -82 -83 0
-81 82 -83 0
81 82 83 0
-81 -82 83 0
-84 -41 0
-84 -83 0
41 83 84 0
-85 -5 0
-85 -84 0
5 84 85 0
-86 13 0
-86 31 0
-13 -31 86 0
87 -22 0
87 -30 0
22 30 -87 0
88 -18 0
88 17 0
18 -17 -88 0
-89 -88 0
-89 46 0
88 -46 89 0
89 -53 -90 0
-89 53 -90 0
89 53 90 0
-89 -53 90 0
91 -87 0
91 -90 0
87 90 -91 0
92 -86 0
92 -91 0
86 91 -92 0
-94 93 0
-94 -88 0
-93 88 94 0
92 -94 -95 0
-92 94 -95 0
92 94 95 0
-92 -94 95 0
96 -29 0
96 -26 0
29 26 -96 0
4 12 -97 0
-4 -12 -97 0
4 -12 97 0
-4 12 97 0
98 1 0
98 45 0
-1 -45 -98 0
-99 97 0
-99 98 0
-97 -98 99 0
6 99 -100 0
-6 -99 -100 0
6 -99 100 0
-6 99 100 0
101 96 0
101 -100 0
-96 100 -101 0
-102 33 0
-102 -15 0
-33 15 102 0
-103 11 0
-103 8 0
-11 -8 103 0
-104 -102 0
-104 103 0
102 -103 104 0
105 24 0
105 -53 0
-24 53 -105 0
106 -4 0
106 -23 0
4 23 -106 0
-97 -106 -107 0
97 106 -107 0
-97 106 107 0
97 -106 107 0
-77 107 -108 0
77 -107 -108 0
-77 -107 108 0
77 107 108 0
30 108 -109 0
-30 -108 -109 0
30 -108 109 0
-30 108 109 0
-110 105 0
-110 109 0
-105 -109 110 0
-104 110 -111 0
104 -110 -111 0
-104 -110 111 0
104 110 111 0
112 -101 0
112 -111 0
101 111 -112 0
-113 95 0
-113 112 0
-95 -112 113 0
90 -98 -114 0
-90 98 -114 0
90 98 114 0
-90 -98 114 0
115 -66 0
115 -26 0
66 26 -115 0
-2 -115 -116 0
2 115 -116 0
-2 115 116 0
2 -115 116 0
-114 -116 -117 0
114 116 -117 0
-114 116 117 0
114 -116 117 0
-118 113 0
-118 -117 0
-113 117 118 0
-85 -118 -119 0
85 118 -119 0
-85 118 119 0
85 -118 119 0
114 101 0
36 41 89 100 -9 0
-95 -73 -59 64 0
-87 -36 12 0
111 -52 -8 0
-12 29 -38 6 55 -54 0
80 -87 1 116 27 69 0
12 -19 -80 81 102 0
91 -99 0
96 -93 69 0
-106 84 74 113 -76 66 0
-44 -100 -48 39 0
-28 -81 26 -75 18 0
79 76 1 0
96 38 79 -47 -90 0
56 76 43 18 0
-104 -5 100 0
76 9 -111 -16 0
-88 -31 102 -16 -22 0
8 18 49 -24 107 0
-47 -84 -112 -104 -76 -17 0
46 21 29 0
-92 -52 -46 -55 0
-14 59 -39 -83 -4 0
14 1 106 0
-96 -56 -80 -35 0
-110 -108 -11 -47 -50 71 0
-15 -82 -16 97 -6 44 0
-114 8 78 0
98 -75 -46 -10 0
-13 -12 0
69 -32 4 0
-38 -4 -70 33 -92 0
54 -59 0
-19 69 75 -111 99 117 0
-28 -34 -91 5 -111 101 0
-103 19 -30 48 -46 -85 0
-25 60 -114 0
63 29 -101 0
-85 -80 35 -52 0
114 -81 -69 82 -115 0
47 25 0
15 27 35 -37 98 0
48 45 -25 99 0
81 110 44 16 23 0
110 81 0
-38 82 -76 -83 -94 0
119 -107 -95 -40 0
17 9 0
-89 -103 -109 -33 0
37 89 0
119 0
